50, 717
24, 19
30, 25
41, 36
17, 12
52, 47
50, 45
38, 33
43, 38
51, 46
25, 20
11, 6
46, 41
43, 38
13, 8
49, 44
42, 37
30, 25
31, 26
55, 50
25, 20
37, 32
53, 48
52, 47
13, 8
24, 19
44, 39
24, 19
49, 44
43, 38
27, 22
38, 33
49, 44
47, 42
34, 29
23, 18
49, 44
53, 48
16, 11
14, 9
26, 21
34, 29
45, 40
33, 28
16, 11
18, 13
6, 1
22, 17
20, 15
43, 38
16, 11
